p tw 44 50
1 2
2 13
3 4
4 5
5 6
5 7
6 7
7 8
8 9
9 10
10 11
10 18
11 12
12 14
12 18
13 24
14 15
15 16
16 17
17 32
18 19
19 20
20 21
20 28
21 22
22 23
22 28
23 25
24 35
25 26
26 27
27 32
28 29
29 30
30 31
31 32
32 33
33 34
34 40
35 40
36 37
37 38
38 39
40 41
41 42
42 43
42 36
43 44
44 3
44 36
